solution status: optimal solution found
objective value:                     221286.905897985
d11(0,0)                                            1 	(obj:0)
d11(1,1)                                            1 	(obj:0)
d11(1,2)                                            1 	(obj:0)
d11(2,3)                                            1 	(obj:0)
d11(2,5)                            0.999999999999999 	(obj:0)
d11(3,7)                                            1 	(obj:0)
d11(3,9)                                            1 	(obj:0)
d11(3,10)                                           1 	(obj:0)
d11(3,11)                                           1 	(obj:0)
d11(3,13)                                           1 	(obj:0)
d11(3,14)                                           1 	(obj:0)
d11(4,15)                                           1 	(obj:0)
d11(4,16)                                           1 	(obj:0)
d11(4,17)                                           1 	(obj:0)
d11(4,19)                                           1 	(obj:0)
d11(4,20)                                           1 	(obj:0)
d11(4,21)                                           1 	(obj:0)
d11(4,22)                                           1 	(obj:0)
d11(4,23)                                           1 	(obj:0)
d11(4,24)                                           1 	(obj:0)
d11(4,25)                                           1 	(obj:0)
d11(4,27)                                           1 	(obj:0)
d11(4,29)                                           1 	(obj:0)
d21(3,7)                                            1 	(obj:0)
d21(4,15)                                           1 	(obj:0)
d21(4,16)                                           1 	(obj:0)
d21(4,17)                                           1 	(obj:0)
d21(4,18)                                           1 	(obj:0)
d21(4,19)                                           1 	(obj:0)
d21(4,21)                                           1 	(obj:0)
d21(4,23)                                           1 	(obj:0)
STE(1,1)                             7013.24989888651 	(obj:0)
STE(0,0)                                        15750 	(obj:0)
STE(1,2)                             8671.49979777533 	(obj:0)
STE(2,3)                              4094.9999999977 	(obj:0)
STE(2,4)                             5753.24989888651 	(obj:0)
STE(2,5)                               5753.249898888 	(obj:0)
STE(2,6)                             7411.49979777533 	(obj:0)
STE(3,7)                             1176.75010110887 	(obj:0)
STE(3,8)                              2834.9999999977 	(obj:0)
STE(3,9)                             2834.99999999768 	(obj:0)
STE(3,10)                            4493.24989888651 	(obj:0)
STE(3,11)                            2834.99999999917 	(obj:0)
STE(3,12)                              4493.249898888 	(obj:0)
STE(3,13)                             4493.2498988865 	(obj:0)
STE(3,14)                            6151.49979777532 	(obj:0)
STE(4,15)                           -1741.49979777998 	(obj:0)
STE(4,16)                           -83.2498988911602 	(obj:0)
STE(4,17)                             -83.24989889115 	(obj:0)
STE(4,18)                             1574.9999999977 	(obj:0)
STE(4,19)                           -83.2498988911623 	(obj:0)
STE(4,20)                                        1575 	(obj:0)
STE(4,21)                            1574.99999999767 	(obj:0)
STE(4,22)                            3233.24989888648 	(obj:0)
STE(4,23)                           -83.2498988896062 	(obj:0)
STE(4,24)                                        1575 	(obj:0)
STE(4,25)                                        1575 	(obj:0)
STE(4,26)                              3233.249898888 	(obj:0)
STE(4,27)                            1574.99999999766 	(obj:0)
STE(4,28)                            3233.24989888651 	(obj:0)
STE(4,29)                            3233.24989888648 	(obj:0)
STE(4,30)                            4891.49979777532 	(obj:0)
y1(3,11)                             1492.42490899994 	(obj:0)
y1(3,13)                             1492.42490899994 	(obj:0)
y1(4,15)                             1492.42490899996 	(obj:0)
y1(4,17)                             1492.42490899996 	(obj:0)
y1(4,19)                             1492.42490899996 	(obj:0)
y1(4,20)                         -2.08470737561584e-009 	(obj:0)
y1(4,21)                             1492.42490899996 	(obj:0)
y1(4,23)                              1492.4249089999 	(obj:0)
y1(4,25)                              1492.4249089992 	(obj:0)
y1(4,27)                             1492.42490899996 	(obj:0)
y1(4,29)                             1492.42490899996 	(obj:0)
AVE(1)                               3265.91696791192 	(obj:0)
WB(2)                                3332.74178563731 	(obj:0)
AVE(2)                               3332.74178563731 	(obj:0)
AVE(3)                               3444.11697932125 	(obj:0)
AVE(4)                               3399.56511093778 	(obj:0)
WG(1)                                3265.91696791192 	(obj:10)
WG(3)                                3444.11697932116 	(obj:10)
WG(4)                                3399.56511093778 	(obj:10)
BG(1)                                6273.89612494744 	(obj:10)
BG(2)                                4196.29249897959 	(obj:10)
BG(3)                                752.175519658414 	(obj:10)
BG(4)                                796.727388041812 	(obj:10)
y1(1,1)                              6729.07509100214 	(obj:0)
y1(1,2)                               5236.6501820022 	(obj:0)
y1(2,3)                              1492.42490899994 	(obj:0)
y1(2,5)                               1492.4249089986 	(obj:0)
y1(3,7)                              1492.42490899994 	(obj:0)
y1(3,9)                              1492.42490899994 	(obj:0)
